p edge 128 2240
e 1 65
e 1 33
e 1 17
e 1 9
e 1 5
e 1 3
e 1 2
e 2 66
e 2 34
e 2 18
e 2 10
e 2 6
e 2 4
e 2 1
e 2 65
e 2 33
e 2 17
e 2 9
e 2 5
e 2 3
e 3 67
e 3 35
e 3 19
e 3 11
e 3 7
e 3 4
e 3 1
e 3 65
e 3 33
e 3 17
e 3 9
e 3 5
e 3 2
e 4 68
e 4 36
e 4 20
e 4 12
e 4 8
e 4 2
e 4 66
e 4 34
e 4 18
e 4 10
e 4 6
e 4 3
e 4 67
e 4 35
e 4 19
e 4 11
e 4 7
e 5 69
e 5 37
e 5 21
e 5 13
e 5 7
e 5 6
e 5 1
e 5 65
e 5 33
e 5 17
e 5 9
e 5 3
e 5 2
e 6 70
e 6 38
e 6 22
e 6 14
e 6 8
e 6 2
e 6 66
e 6 34
e 6 18
e 6 10
e 6 4
e 6 5
e 6 69
e 6 37
e 6 21
e 6 13
e 6 7
e 7 71
e 7 39
e 7 23
e 7 15
e 7 8
e 7 3
e 7 67
e 7 35
e 7 19
e 7 11
e 7 4
e 7 5
e 7 69
e 7 37
e 7 21
e 7 13
e 7 6
e 8 72
e 8 40
e 8 24
e 8 16
e 8 4
e 8 68
e 8 36
e 8 20
e 8 12
e 8 6
e 8 70
e 8 38
e 8 22
e 8 14
e 8 7
e 8 71
e 8 39
e 8 23
e 8 15
e 9 73
e 9 41
e 9 25
e 9 13
e 9 11
e 9 10
e 9 1
e 9 65
e 9 33
e 9 17
e 9 5
e 9 3
e 9 2
e 10 74
e 10 42
e 10 26
e 10 14
e 10 12
e 10 2
e 10 66
e 10 34
e 10 18
e 10 6
e 10 4
e 10 9
e 10 73
e 10 41
e 10 25
e 10 13
e 10 11
e 11 75
e 11 43
e 11 27
e 11 15
e 11 12
e 11 3
e 11 67
e 11 35
e 11 19
e 11 7
e 11 4
e 11 9
e 11 73
e 11 41
e 11 25
e 11 13
e 11 10
e 12 76
e 12 44
e 12 28
e 12 16
e 12 4
e 12 68
e 12 36
e 12 20
e 12 8
e 12 10
e 12 74
e 12 42
e 12 26
e 12 14
e 12 11
e 12 75
e 12 43
e 12 27
e 12 15
e 13 77
e 13 45
e 13 29
e 13 15
e 13 14
e 13 5
e 13 69
e 13 37
e 13 21
e 13 7
e 13 6
e 13 9
e 13 73
e 13 41
e 13 25
e 13 11
e 13 10
e 14 78
e 14 46
e 14 30
e 14 16
e 14 6
e 14 70
e 14 38
e 14 22
e 14 8
e 14 10
e 14 74
e 14 42
e 14 26
e 14 12
e 14 13
e 14 77
e 14 45
e 14 29
e 14 15
e 15 79
e 15 47
e 15 31
e 15 16
e 15 7
e 15 71
e 15 39
e 15 23
e 15 8
e 15 11
e 15 75
e 15 43
e 15 27
e 15 12
e 15 13
e 15 77
e 15 45
e 15 29
e 15 14
e 16 80
e 16 48
e 16 32
e 16 8
e 16 72
e 16 40
e 16 24
e 16 12
e 16 76
e 16 44
e 16 28
e 16 14
e 16 78
e 16 46
e 16 30
e 16 15
e 16 79
e 16 47
e 16 31
e 17 81
e 17 49
e 17 25
e 17 21
e 17 19
e 17 18
e 17 1
e 17 65
e 17 33
e 17 9
e 17 5
e 17 3
e 17 2
e 18 82
e 18 50
e 18 26
e 18 22
e 18 20
e 18 2
e 18 66
e 18 34
e 18 10
e 18 6
e 18 4
e 18 17
e 18 81
e 18 49
e 18 25
e 18 21
e 18 19
e 19 83
e 19 51
e 19 27
e 19 23
e 19 20
e 19 3
e 19 67
e 19 35
e 19 11
e 19 7
e 19 4
e 19 17
e 19 81
e 19 49
e 19 25
e 19 21
e 19 18
e 20 84
e 20 52
e 20 28
e 20 24
e 20 4
e 20 68
e 20 36
e 20 12
e 20 8
e 20 18
e 20 82
e 20 50
e 20 26
e 20 22
e 20 19
e 20 83
e 20 51
e 20 27
e 20 23
e 21 85
e 21 53
e 21 29
e 21 23
e 21 22
e 21 5
e 21 69
e 21 37
e 21 13
e 21 7
e 21 6
e 21 17
e 21 81
e 21 49
e 21 25
e 21 19
e 21 18
e 22 86
e 22 54
e 22 30
e 22 24
e 22 6
e 22 70
e 22 38
e 22 14
e 22 8
e 22 18
e 22 82
e 22 50
e 22 26
e 22 20
e 22 21
e 22 85
e 22 53
e 22 29
e 22 23
e 23 87
e 23 55
e 23 31
e 23 24
e 23 7
e 23 71
e 23 39
e 23 15
e 23 8
e 23 19
e 23 83
e 23 51
e 23 27
e 23 20
e 23 21
e 23 85
e 23 53
e 23 29
e 23 22
e 24 88
e 24 56
e 24 32
e 24 8
e 24 72
e 24 40
e 24 16
e 24 20
e 24 84
e 24 52
e 24 28
e 24 22
e 24 86
e 24 54
e 24 30
e 24 23
e 24 87
e 24 55
e 24 31
e 25 89
e 25 57
e 25 29
e 25 27
e 25 26
e 25 9
e 25 73
e 25 41
e 25 13
e 25 11
e 25 10
e 25 17
e 25 81
e 25 49
e 25 21
e 25 19
e 25 18
e 26 90
e 26 58
e 26 30
e 26 28
e 26 10
e 26 74
e 26 42
e 26 14
e 26 12
e 26 18
e 26 82
e 26 50
e 26 22
e 26 20
e 26 25
e 26 89
e 26 57
e 26 29
e 26 27
e 27 91
e 27 59
e 27 31
e 27 28
e 27 11
e 27 75
e 27 43
e 27 15
e 27 12
e 27 19
e 27 83
e 27 51
e 27 23
e 27 20
e 27 25
e 27 89
e 27 57
e 27 29
e 27 26
e 28 92
e 28 60
e 28 32
e 28 12
e 28 76
e 28 44
e 28 16
e 28 20
e 28 84
e 28 52
e 28 24
e 28 26
e 28 90
e 28 58
e 28 30
e 28 27
e 28 91
e 28 59
e 28 31
e 29 93
e 29 61
e 29 31
e 29 30
e 29 13
e 29 77
e 29 45
e 29 15
e 29 14
e 29 21
e 29 85
e 29 53
e 29 23
e 29 22
e 29 25
e 29 89
e 29 57
e 29 27
e 29 26
e 30 94
e 30 62
e 30 32
e 30 14
e 30 78
e 30 46
e 30 16
e 30 22
e 30 86
e 30 54
e 30 24
e 30 26
e 30 90
e 30 58
e 30 28
e 30 29
e 30 93
e 30 61
e 30 31
e 31 95
e 31 63
e 31 32
e 31 15
e 31 79
e 31 47
e 31 16
e 31 23
e 31 87
e 31 55
e 31 24
e 31 27
e 31 91
e 31 59
e 31 28
e 31 29
e 31 93
e 31 61
e 31 30
e 32 96
e 32 64
e 32 16
e 32 80
e 32 48
e 32 24
e 32 88
e 32 56
e 32 28
e 32 92
e 32 60
e 32 30
e 32 94
e 32 62
e 32 31
e 32 95
e 32 63
e 33 97
e 33 49
e 33 41
e 33 37
e 33 35
e 33 34
e 33 1
e 33 65
e 33 17
e 33 9
e 33 5
e 33 3
e 33 2
e 34 98
e 34 50
e 34 42
e 34 38
e 34 36
e 34 2
e 34 66
e 34 18
e 34 10
e 34 6
e 34 4
e 34 33
e 34 97
e 34 49
e 34 41
e 34 37
e 34 35
e 35 99
e 35 51
e 35 43
e 35 39
e 35 36
e 35 3
e 35 67
e 35 19
e 35 11
e 35 7
e 35 4
e 35 33
e 35 97
e 35 49
e 35 41
e 35 37
e 35 34
e 36 100
e 36 52
e 36 44
e 36 40
e 36 4
e 36 68
e 36 20
e 36 12
e 36 8
e 36 34
e 36 98
e 36 50
e 36 42
e 36 38
e 36 35
e 36 99
e 36 51
e 36 43
e 36 39
e 37 101
e 37 53
e 37 45
e 37 39
e 37 38
e 37 5
e 37 69
e 37 21
e 37 13
e 37 7
e 37 6
e 37 33
e 37 97
e 37 49
e 37 41
e 37 35
e 37 34
e 38 102
e 38 54
e 38 46
e 38 40
e 38 6
e 38 70
e 38 22
e 38 14
e 38 8
e 38 34
e 38 98
e 38 50
e 38 42
e 38 36
e 38 37
e 38 101
e 38 53
e 38 45
e 38 39
e 39 103
e 39 55
e 39 47
e 39 40
e 39 7
e 39 71
e 39 23
e 39 15
e 39 8
e 39 35
e 39 99
e 39 51
e 39 43
e 39 36
e 39 37
e 39 101
e 39 53
e 39 45
e 39 38
e 40 104
e 40 56
e 40 48
e 40 8
e 40 72
e 40 24
e 40 16
e 40 36
e 40 100
e 40 52
e 40 44
e 40 38
e 40 102
e 40 54
e 40 46
e 40 39
e 40 103
e 40 55
e 40 47
e 41 105
e 41 57
e 41 45
e 41 43
e 41 42
e 41 9
e 41 73
e 41 25
e 41 13
e 41 11
e 41 10
e 41 33
e 41 97
e 41 49
e 41 37
e 41 35
e 41 34
e 42 106
e 42 58
e 42 46
e 42 44
e 42 10
e 42 74
e 42 26
e 42 14
e 42 12
e 42 34
e 42 98
e 42 50
e 42 38
e 42 36
e 42 41
e 42 105
e 42 57
e 42 45
e 42 43
e 43 107
e 43 59
e 43 47
e 43 44
e 43 11
e 43 75
e 43 27
e 43 15
e 43 12
e 43 35
e 43 99
e 43 51
e 43 39
e 43 36
e 43 41
e 43 105
e 43 57
e 43 45
e 43 42
e 44 108
e 44 60
e 44 48
e 44 12
e 44 76
e 44 28
e 44 16
e 44 36
e 44 100
e 44 52
e 44 40
e 44 42
e 44 106
e 44 58
e 44 46
e 44 43
e 44 107
e 44 59
e 44 47
e 45 109
e 45 61
e 45 47
e 45 46
e 45 13
e 45 77
e 45 29
e 45 15
e 45 14
e 45 37
e 45 101
e 45 53
e 45 39
e 45 38
e 45 41
e 45 105
e 45 57
e 45 43
e 45 42
e 46 110
e 46 62
e 46 48
e 46 14
e 46 78
e 46 30
e 46 16
e 46 38
e 46 102
e 46 54
e 46 40
e 46 42
e 46 106
e 46 58
e 46 44
e 46 45
e 46 109
e 46 61
e 46 47
e 47 111
e 47 63
e 47 48
e 47 15
e 47 79
e 47 31
e 47 16
e 47 39
e 47 103
e 47 55
e 47 40
e 47 43
e 47 107
e 47 59
e 47 44
e 47 45
e 47 109
e 47 61
e 47 46
e 48 112
e 48 64
e 48 16
e 48 80
e 48 32
e 48 40
e 48 104
e 48 56
e 48 44
e 48 108
e 48 60
e 48 46
e 48 110
e 48 62
e 48 47
e 48 111
e 48 63
e 49 113
e 49 57
e 49 53
e 49 51
e 49 50
e 49 17
e 49 81
e 49 25
e 49 21
e 49 19
e 49 18
e 49 33
e 49 97
e 49 41
e 49 37
e 49 35
e 49 34
e 50 114
e 50 58
e 50 54
e 50 52
e 50 18
e 50 82
e 50 26
e 50 22
e 50 20
e 50 34
e 50 98
e 50 42
e 50 38
e 50 36
e 50 49
e 50 113
e 50 57
e 50 53
e 50 51
e 51 115
e 51 59
e 51 55
e 51 52
e 51 19
e 51 83
e 51 27
e 51 23
e 51 20
e 51 35
e 51 99
e 51 43
e 51 39
e 51 36
e 51 49
e 51 113
e 51 57
e 51 53
e 51 50
e 52 116
e 52 60
e 52 56
e 52 20
e 52 84
e 52 28
e 52 24
e 52 36
e 52 100
e 52 44
e 52 40
e 52 50
e 52 114
e 52 58
e 52 54
e 52 51
e 52 115
e 52 59
e 52 55
e 53 117
e 53 61
e 53 55
e 53 54
e 53 21
e 53 85
e 53 29
e 53 23
e 53 22
e 53 37
e 53 101
e 53 45
e 53 39
e 53 38
e 53 49
e 53 113
e 53 57
e 53 51
e 53 50
e 54 118
e 54 62
e 54 56
e 54 22
e 54 86
e 54 30
e 54 24
e 54 38
e 54 102
e 54 46
e 54 40
e 54 50
e 54 114
e 54 58
e 54 52
e 54 53
e 54 117
e 54 61
e 54 55
e 55 119
e 55 63
e 55 56
e 55 23
e 55 87
e 55 31
e 55 24
e 55 39
e 55 103
e 55 47
e 55 40
e 55 51
e 55 115
e 55 59
e 55 52
e 55 53
e 55 117
e 55 61
e 55 54
e 56 120
e 56 64
e 56 24
e 56 88
e 56 32
e 56 40
e 56 104
e 56 48
e 56 52
e 56 116
e 56 60
e 56 54
e 56 118
e 56 62
e 56 55
e 56 119
e 56 63
e 57 121
e 57 61
e 57 59
e 57 58
e 57 25
e 57 89
e 57 29
e 57 27
e 57 26
e 57 41
e 57 105
e 57 45
e 57 43
e 57 42
e 57 49
e 57 113
e 57 53
e 57 51
e 57 50
e 58 122
e 58 62
e 58 60
e 58 26
e 58 90
e 58 30
e 58 28
e 58 42
e 58 106
e 58 46
e 58 44
e 58 50
e 58 114
e 58 54
e 58 52
e 58 57
e 58 121
e 58 61
e 58 59
e 59 123
e 59 63
e 59 60
e 59 27
e 59 91
e 59 31
e 59 28
e 59 43
e 59 107
e 59 47
e 59 44
e 59 51
e 59 115
e 59 55
e 59 52
e 59 57
e 59 121
e 59 61
e 59 58
e 60 124
e 60 64
e 60 28
e 60 92
e 60 32
e 60 44
e 60 108
e 60 48
e 60 52
e 60 116
e 60 56
e 60 58
e 60 122
e 60 62
e 60 59
e 60 123
e 60 63
e 61 125
e 61 63
e 61 62
e 61 29
e 61 93
e 61 31
e 61 30
e 61 45
e 61 109
e 61 47
e 61 46
e 61 53
e 61 117
e 61 55
e 61 54
e 61 57
e 61 121
e 61 59
e 61 58
e 62 126
e 62 64
e 62 30
e 62 94
e 62 32
e 62 46
e 62 110
e 62 48
e 62 54
e 62 118
e 62 56
e 62 58
e 62 122
e 62 60
e 62 61
e 62 125
e 62 63
e 63 127
e 63 64
e 63 31
e 63 95
e 63 32
e 63 47
e 63 111
e 63 48
e 63 55
e 63 119
e 63 56
e 63 59
e 63 123
e 63 60
e 63 61
e 63 125
e 63 62
e 64 128
e 64 32
e 64 96
e 64 48
e 64 112
e 64 56
e 64 120
e 64 60
e 64 124
e 64 62
e 64 126
e 64 63
e 64 127
e 65 97
e 65 81
e 65 73
e 65 69
e 65 67
e 65 66
e 65 1
e 65 33
e 65 17
e 65 9
e 65 5
e 65 3
e 65 2
e 66 98
e 66 82
e 66 74
e 66 70
e 66 68
e 66 2
e 66 34
e 66 18
e 66 10
e 66 6
e 66 4
e 66 65
e 66 97
e 66 81
e 66 73
e 66 69
e 66 67
e 67 99
e 67 83
e 67 75
e 67 71
e 67 68
e 67 3
e 67 35
e 67 19
e 67 11
e 67 7
e 67 4
e 67 65
e 67 97
e 67 81
e 67 73
e 67 69
e 67 66
e 68 100
e 68 84
e 68 76
e 68 72
e 68 4
e 68 36
e 68 20
e 68 12
e 68 8
e 68 66
e 68 98
e 68 82
e 68 74
e 68 70
e 68 67
e 68 99
e 68 83
e 68 75
e 68 71
e 69 101
e 69 85
e 69 77
e 69 71
e 69 70
e 69 5
e 69 37
e 69 21
e 69 13
e 69 7
e 69 6
e 69 65
e 69 97
e 69 81
e 69 73
e 69 67
e 69 66
e 70 102
e 70 86
e 70 78
e 70 72
e 70 6
e 70 38
e 70 22
e 70 14
e 70 8
e 70 66
e 70 98
e 70 82
e 70 74
e 70 68
e 70 69
e 70 101
e 70 85
e 70 77
e 70 71
e 71 103
e 71 87
e 71 79
e 71 72
e 71 7
e 71 39
e 71 23
e 71 15
e 71 8
e 71 67
e 71 99
e 71 83
e 71 75
e 71 68
e 71 69
e 71 101
e 71 85
e 71 77
e 71 70
e 72 104
e 72 88
e 72 80
e 72 8
e 72 40
e 72 24
e 72 16
e 72 68
e 72 100
e 72 84
e 72 76
e 72 70
e 72 102
e 72 86
e 72 78
e 72 71
e 72 103
e 72 87
e 72 79
e 73 105
e 73 89
e 73 77
e 73 75
e 73 74
e 73 9
e 73 41
e 73 25
e 73 13
e 73 11
e 73 10
e 73 65
e 73 97
e 73 81
e 73 69
e 73 67
e 73 66
e 74 106
e 74 90
e 74 78
e 74 76
e 74 10
e 74 42
e 74 26
e 74 14
e 74 12
e 74 66
e 74 98
e 74 82
e 74 70
e 74 68
e 74 73
e 74 105
e 74 89
e 74 77
e 74 75
e 75 107
e 75 91
e 75 79
e 75 76
e 75 11
e 75 43
e 75 27
e 75 15
e 75 12
e 75 67
e 75 99
e 75 83
e 75 71
e 75 68
e 75 73
e 75 105
e 75 89
e 75 77
e 75 74
e 76 108
e 76 92
e 76 80
e 76 12
e 76 44
e 76 28
e 76 16
e 76 68
e 76 100
e 76 84
e 76 72
e 76 74
e 76 106
e 76 90
e 76 78
e 76 75
e 76 107
e 76 91
e 76 79
e 77 109
e 77 93
e 77 79
e 77 78
e 77 13
e 77 45
e 77 29
e 77 15
e 77 14
e 77 69
e 77 101
e 77 85
e 77 71
e 77 70
e 77 73
e 77 105
e 77 89
e 77 75
e 77 74
e 78 110
e 78 94
e 78 80
e 78 14
e 78 46
e 78 30
e 78 16
e 78 70
e 78 102
e 78 86
e 78 72
e 78 74
e 78 106
e 78 90
e 78 76
e 78 77
e 78 109
e 78 93
e 78 79
e 79 111
e 79 95
e 79 80
e 79 15
e 79 47
e 79 31
e 79 16
e 79 71
e 79 103
e 79 87
e 79 72
e 79 75
e 79 107
e 79 91
e 79 76
e 79 77
e 79 109
e 79 93
e 79 78
e 80 112
e 80 96
e 80 16
e 80 48
e 80 32
e 80 72
e 80 104
e 80 88
e 80 76
e 80 108
e 80 92
e 80 78
e 80 110
e 80 94
e 80 79
e 80 111
e 80 95
e 81 113
e 81 89
e 81 85
e 81 83
e 81 82
e 81 17
e 81 49
e 81 25
e 81 21
e 81 19
e 81 18
e 81 65
e 81 97
e 81 73
e 81 69
e 81 67
e 81 66
e 82 114
e 82 90
e 82 86
e 82 84
e 82 18
e 82 50
e 82 26
e 82 22
e 82 20
e 82 66
e 82 98
e 82 74
e 82 70
e 82 68
e 82 81
e 82 113
e 82 89
e 82 85
e 82 83
e 83 115
e 83 91
e 83 87
e 83 84
e 83 19
e 83 51
e 83 27
e 83 23
e 83 20
e 83 67
e 83 99
e 83 75
e 83 71
e 83 68
e 83 81
e 83 113
e 83 89
e 83 85
e 83 82
e 84 116
e 84 92
e 84 88
e 84 20
e 84 52
e 84 28
e 84 24
e 84 68
e 84 100
e 84 76
e 84 72
e 84 82
e 84 114
e 84 90
e 84 86
e 84 83
e 84 115
e 84 91
e 84 87
e 85 117
e 85 93
e 85 87
e 85 86
e 85 21
e 85 53
e 85 29
e 85 23
e 85 22
e 85 69
e 85 101
e 85 77
e 85 71
e 85 70
e 85 81
e 85 113
e 85 89
e 85 83
e 85 82
e 86 118
e 86 94
e 86 88
e 86 22
e 86 54
e 86 30
e 86 24
e 86 70
e 86 102
e 86 78
e 86 72
e 86 82
e 86 114
e 86 90
e 86 84
e 86 85
e 86 117
e 86 93
e 86 87
e 87 119
e 87 95
e 87 88
e 87 23
e 87 55
e 87 31
e 87 24
e 87 71
e 87 103
e 87 79
e 87 72
e 87 83
e 87 115
e 87 91
e 87 84
e 87 85
e 87 117
e 87 93
e 87 86
e 88 120
e 88 96
e 88 24
e 88 56
e 88 32
e 88 72
e 88 104
e 88 80
e 88 84
e 88 116
e 88 92
e 88 86
e 88 118
e 88 94
e 88 87
e 88 119
e 88 95
e 89 121
e 89 93
e 89 91
e 89 90
e 89 25
e 89 57
e 89 29
e 89 27
e 89 26
e 89 73
e 89 105
e 89 77
e 89 75
e 89 74
e 89 81
e 89 113
e 89 85
e 89 83
e 89 82
e 90 122
e 90 94
e 90 92
e 90 26
e 90 58
e 90 30
e 90 28
e 90 74
e 90 106
e 90 78
e 90 76
e 90 82
e 90 114
e 90 86
e 90 84
e 90 89
e 90 121
e 90 93
e 90 91
e 91 123
e 91 95
e 91 92
e 91 27
e 91 59
e 91 31
e 91 28
e 91 75
e 91 107
e 91 79
e 91 76
e 91 83
e 91 115
e 91 87
e 91 84
e 91 89
e 91 121
e 91 93
e 91 90
e 92 124
e 92 96
e 92 28
e 92 60
e 92 32
e 92 76
e 92 108
e 92 80
e 92 84
e 92 116
e 92 88
e 92 90
e 92 122
e 92 94
e 92 91
e 92 123
e 92 95
e 93 125
e 93 95
e 93 94
e 93 29
e 93 61
e 93 31
e 93 30
e 93 77
e 93 109
e 93 79
e 93 78
e 93 85
e 93 117
e 93 87
e 93 86
e 93 89
e 93 121
e 93 91
e 93 90
e 94 126
e 94 96
e 94 30
e 94 62
e 94 32
e 94 78
e 94 110
e 94 80
e 94 86
e 94 118
e 94 88
e 94 90
e 94 122
e 94 92
e 94 93
e 94 125
e 94 95
e 95 127
e 95 96
e 95 31
e 95 63
e 95 32
e 95 79
e 95 111
e 95 80
e 95 87
e 95 119
e 95 88
e 95 91
e 95 123
e 95 92
e 95 93
e 95 125
e 95 94
e 96 128
e 96 32
e 96 64
e 96 80
e 96 112
e 96 88
e 96 120
e 96 92
e 96 124
e 96 94
e 96 126
e 96 95
e 96 127
e 97 113
e 97 105
e 97 101
e 97 99
e 97 98
e 97 33
e 97 49
e 97 41
e 97 37
e 97 35
e 97 34
e 97 65
e 97 81
e 97 73
e 97 69
e 97 67
e 97 66
e 98 114
e 98 106
e 98 102
e 98 100
e 98 34
e 98 50
e 98 42
e 98 38
e 98 36
e 98 66
e 98 82
e 98 74
e 98 70
e 98 68
e 98 97
e 98 113
e 98 105
e 98 101
e 98 99
e 99 115
e 99 107
e 99 103
e 99 100
e 99 35
e 99 51
e 99 43
e 99 39
e 99 36
e 99 67
e 99 83
e 99 75
e 99 71
e 99 68
e 99 97
e 99 113
e 99 105
e 99 101
e 99 98
e 100 116
e 100 108
e 100 104
e 100 36
e 100 52
e 100 44
e 100 40
e 100 68
e 100 84
e 100 76
e 100 72
e 100 98
e 100 114
e 100 106
e 100 102
e 100 99
e 100 115
e 100 107
e 100 103
e 101 117
e 101 109
e 101 103
e 101 102
e 101 37
e 101 53
e 101 45
e 101 39
e 101 38
e 101 69
e 101 85
e 101 77
e 101 71
e 101 70
e 101 97
e 101 113
e 101 105
e 101 99
e 101 98
e 102 118
e 102 110
e 102 104
e 102 38
e 102 54
e 102 46
e 102 40
e 102 70
e 102 86
e 102 78
e 102 72
e 102 98
e 102 114
e 102 106
e 102 100
e 102 101
e 102 117
e 102 109
e 102 103
e 103 119
e 103 111
e 103 104
e 103 39
e 103 55
e 103 47
e 103 40
e 103 71
e 103 87
e 103 79
e 103 72
e 103 99
e 103 115
e 103 107
e 103 100
e 103 101
e 103 117
e 103 109
e 103 102
e 104 120
e 104 112
e 104 40
e 104 56
e 104 48
e 104 72
e 104 88
e 104 80
e 104 100
e 104 116
e 104 108
e 104 102
e 104 118
e 104 110
e 104 103
e 104 119
e 104 111
e 105 121
e 105 109
e 105 107
e 105 106
e 105 41
e 105 57
e 105 45
e 105 43
e 105 42
e 105 73
e 105 89
e 105 77
e 105 75
e 105 74
e 105 97
e 105 113
e 105 101
e 105 99
e 105 98
e 106 122
e 106 110
e 106 108
e 106 42
e 106 58
e 106 46
e 106 44
e 106 74
e 106 90
e 106 78
e 106 76
e 106 98
e 106 114
e 106 102
e 106 100
e 106 105
e 106 121
e 106 109
e 106 107
e 107 123
e 107 111
e 107 108
e 107 43
e 107 59
e 107 47
e 107 44
e 107 75
e 107 91
e 107 79
e 107 76
e 107 99
e 107 115
e 107 103
e 107 100
e 107 105
e 107 121
e 107 109
e 107 106
e 108 124
e 108 112
e 108 44
e 108 60
e 108 48
e 108 76
e 108 92
e 108 80
e 108 100
e 108 116
e 108 104
e 108 106
e 108 122
e 108 110
e 108 107
e 108 123
e 108 111
e 109 125
e 109 111
e 109 110
e 109 45
e 109 61
e 109 47
e 109 46
e 109 77
e 109 93
e 109 79
e 109 78
e 109 101
e 109 117
e 109 103
e 109 102
e 109 105
e 109 121
e 109 107
e 109 106
e 110 126
e 110 112
e 110 46
e 110 62
e 110 48
e 110 78
e 110 94
e 110 80
e 110 102
e 110 118
e 110 104
e 110 106
e 110 122
e 110 108
e 110 109
e 110 125
e 110 111
e 111 127
e 111 112
e 111 47
e 111 63
e 111 48
e 111 79
e 111 95
e 111 80
e 111 103
e 111 119
e 111 104
e 111 107
e 111 123
e 111 108
e 111 109
e 111 125
e 111 110
e 112 128
e 112 48
e 112 64
e 112 80
e 112 96
e 112 104
e 112 120
e 112 108
e 112 124
e 112 110
e 112 126
e 112 111
e 112 127
e 113 121
e 113 117
e 113 115
e 113 114
e 113 49
e 113 57
e 113 53
e 113 51
e 113 50
e 113 81
e 113 89
e 113 85
e 113 83
e 113 82
e 113 97
e 113 105
e 113 101
e 113 99
e 113 98
e 114 122
e 114 118
e 114 116
e 114 50
e 114 58
e 114 54
e 114 52
e 114 82
e 114 90
e 114 86
e 114 84
e 114 98
e 114 106
e 114 102
e 114 100
e 114 113
e 114 121
e 114 117
e 114 115
e 115 123
e 115 119
e 115 116
e 115 51
e 115 59
e 115 55
e 115 52
e 115 83
e 115 91
e 115 87
e 115 84
e 115 99
e 115 107
e 115 103
e 115 100
e 115 113
e 115 121
e 115 117
e 115 114
e 116 124
e 116 120
e 116 52
e 116 60
e 116 56
e 116 84
e 116 92
e 116 88
e 116 100
e 116 108
e 116 104
e 116 114
e 116 122
e 116 118
e 116 115
e 116 123
e 116 119
e 117 125
e 117 119
e 117 118
e 117 53
e 117 61
e 117 55
e 117 54
e 117 85
e 117 93
e 117 87
e 117 86
e 117 101
e 117 109
e 117 103
e 117 102
e 117 113
e 117 121
e 117 115
e 117 114
e 118 126
e 118 120
e 118 54
e 118 62
e 118 56
e 118 86
e 118 94
e 118 88
e 118 102
e 118 110
e 118 104
e 118 114
e 118 122
e 118 116
e 118 117
e 118 125
e 118 119
e 119 127
e 119 120
e 119 55
e 119 63
e 119 56
e 119 87
e 119 95
e 119 88
e 119 103
e 119 111
e 119 104
e 119 115
e 119 123
e 119 116
e 119 117
e 119 125
e 119 118
e 120 128
e 120 56
e 120 64
e 120 88
e 120 96
e 120 104
e 120 112
e 120 116
e 120 124
e 120 118
e 120 126
e 120 119
e 120 127
e 121 125
e 121 123
e 121 122
e 121 57
e 121 61
e 121 59
e 121 58
e 121 89
e 121 93
e 121 91
e 121 90
e 121 105
e 121 109
e 121 107
e 121 106
e 121 113
e 121 117
e 121 115
e 121 114
e 122 126
e 122 124
e 122 58
e 122 62
e 122 60
e 122 90
e 122 94
e 122 92
e 122 106
e 122 110
e 122 108
e 122 114
e 122 118
e 122 116
e 122 121
e 122 125
e 122 123
e 123 127
e 123 124
e 123 59
e 123 63
e 123 60
e 123 91
e 123 95
e 123 92
e 123 107
e 123 111
e 123 108
e 123 115
e 123 119
e 123 116
e 123 121
e 123 125
e 123 122
e 124 128
e 124 60
e 124 64
e 124 92
e 124 96
e 124 108
e 124 112
e 124 116
e 124 120
e 124 122
e 124 126
e 124 123
e 124 127
e 125 127
e 125 126
e 125 61
e 125 63
e 125 62
e 125 93
e 125 95
e 125 94
e 125 109
e 125 111
e 125 110
e 125 117
e 125 119
e 125 118
e 125 121
e 125 123
e 125 122
e 126 128
e 126 62
e 126 64
e 126 94
e 126 96
e 126 110
e 126 112
e 126 118
e 126 120
e 126 122
e 126 124
e 126 125
e 126 127
e 127 128
e 127 63
e 127 64
e 127 95
e 127 96
e 127 111
e 127 112
e 127 119
e 127 120
e 127 123
e 127 124
e 127 125
e 127 126
e 128 64
e 128 96
e 128 112
e 128 120
e 128 124
e 128 126
e 128 127
